c preprocessed version of BN_112, 40 vertices, 584 edges
p td 40 584
1 0
6 0
13 0
9 0
21 0
23 0
22 0
2 1
6 1
13 1
9 1
11 1
21 1
16 1
23 1
22 1
2 3
2 4
2 5
2 7
2 8
2 10
2 12
2 14
2 20
2 19
2 17
2 13
2 6
9 2
11 2
21 2
16 2
18 2
23 2
22 2
24 2
4 3
6 3
11 3
16 3
18 3
23 3
4 5
6 4
13 4
9 4
11 4
21 4
16 4
18 4
23 4
6 5
13 5
9 5
11 5
21 5
16 5
18 5
23 5
6 7
6 10
6 12
6 17
6 13
9 6
11 6
21 6
16 6
18 6
23 6
22 6
24 6
7 8
7 10
9 7
11 7
21 7
18 7
23 7
22 7
24 7
9 8
11 8
18 8
23 8
22 8
24 8
9 10
9 12
9 20
9 19
9 13
9 24
9 18
9 11
9 21
9 16
9 23
9 22
11 10
21 10
23 10
22 10
11 12
11 14
11 15
11 20
11 17
11 13
11 24
11 18
11 21
11 16
11 23
11 22
13 12
16 12
23 12
13 14
13 19
13 17
21 13
16 13
18 13
23 13
22 13
14 15
21 14
16 14
18 14
23 14
22 14
16 15
18 15
23 15
22 15
16 17
21 16
16 22
16 24
16 18
16 23
18 17
18 19
21 18
18 24
18 23
18 22
19 20
23 19
22 19
21 20
23 20
22 20
21 22
21 24
21 23
23 22
22 24
23 24
25 39
25 0
25 31
25 3
25 4
25 5
25 38
25 26
25 7
25 30
25 10
25 12
25 1
25 27
25 6
25 2
25 35
25 13
25 28
25 9
25 11
25 29
25 33
25 34
25 21
25 16
25 18
25 36
25 23
25 22
25 37
25 24
25 32
26 39
26 31
26 38
26 7
26 10
26 14
26 15
26 20
26 17
26 19
26 27
26 30
26 2
26 35
26 6
26 13
26 28
26 9
26 11
26 29
26 33
26 34
26 21
26 16
26 18
26 36
26 23
26 22
26 37
26 32
27 39
27 0
27 31
27 3
27 4
27 38
27 7
27 30
27 10
27 12
27 14
27 20
27 19
27 17
27 1
27 6
27 2
27 35
27 13
27 28
27 9
27 11
27 29
27 33
27 34
27 21
27 16
27 18
27 36
27 23
27 22
27 37
27 24
27 32
28 39
28 0
28 24
28 8
28 18
28 12
28 20
28 17
28 4
28 19
28 7
28 34
28 6
28 9
28 11
28 29
28 2
28 31
28 32
28 33
28 21
28 16
28 35
28 36
28 23
28 22
28 13
28 37
28 38
28 1
28 30
29 39
29 9
29 11
29 30
29 2
29 32
29 33
29 34
29 21
29 16
29 35
29 6
29 23
29 22
29 13
29 37
29 0
29 24
29 18
29 3
29 4
29 5
29 8
29 7
29 10
29 14
29 15
29 12
29 1
29 36
29 38
29 31
30 39
30 31
30 3
30 4
30 5
30 38
30 7
30 8
30 10
30 14
30 15
30 17
30 1
30 2
30 35
30 13
30 6
30 9
30 11
30 33
30 34
30 21
30 16
30 18
30 36
30 23
30 22
30 37
30 24
30 32
31 39
31 0
31 3
31 4
31 5
31 8
31 7
31 14
31 15
31 12
31 20
31 19
31 1
31 38
31 2
31 35
31 6
31 13
31 9
31 11
31 33
31 34
31 21
31 16
31 18
31 36
31 23
31 22
31 37
31 24
31 32
32 39
32 9
32 11
32 33
32 34
32 21
32 16
32 18
32 36
32 23
32 22
32 37
32 24
32 0
32 3
32 4
32 5
32 7
32 10
32 12
32 20
32 19
32 38
32 17
32 1
32 2
32 35
32 6
32 13
33 39
33 9
33 11
33 2
33 7
33 1
33 36
33 0
33 20
33 22
33 24
33 8
33 10
33 12
33 14
33 15
33 17
33 16
33 4
33 5
33 6
33 37
33 21
33 34
33 18
33 35
33 23
33 13
33 38
34 39
34 9
34 11
34 2
34 24
34 18
34 3
34 4
34 5
34 7
34 14
34 15
34 12
34 20
34 17
34 19
34 6
34 21
34 16
34 35
34 36
34 23
34 22
34 13
34 37
34 38
35 39
35 3
35 4
35 5
35 38
35 7
35 8
35 10
35 12
35 14
35 15
35 20
35 19
35 17
35 1
35 2
35 6
35 13
35 9
35 11
35 21
35 16
35 18
35 36
35 23
35 22
35 37
35 24
36 39
36 9
36 11
36 21
36 16
36 18
36 0
36 24
36 4
36 5
36 7
36 10
36 14
36 15
36 12
36 20
36 19
36 17
36 1
36 38
36 2
36 6
36 23
36 22
36 13
36 37
37 39
37 9
37 11
37 21
37 16
37 18
37 23
37 22
37 2
37 6
37 13
37 7
37 1
37 20
37 24
37 10
37 12
37 4
37 5
37 38
37 19
38 39
38 0
38 3
38 4
38 5
38 12
38 20
38 19
38 17
38 1
38 2
38 6
38 13
38 9
38 11
38 21
38 16
38 18
38 23
38 22
39 0
39 3
39 4
39 5
39 7
39 8
39 10
39 12
39 14
39 15
39 19
39 2
39 6
39 1
39 13
39 24
39 18
39 9
39 11
39 21
39 16
39 23
39 22
